
  32    4
  10   10   10   10

   0   0   0   0   0  10 2 3 4 5 6 8 12 13 30 31 
   5   1   1   0   1   9 28 26 24 23 22 19 15 10 7 
   9   4   7   0   3   9 29 24 23 19 18 17 16 15 7 
   8   1   5   1   0   8 27 24 22 19 18 17 14 11 
   3   5   3   0   3   7 27 21 19 18 17 15 9 
   5   0   2   1   4   6 26 23 22 20 16 14 
   5   0   4   3   5   4 25 21 20 14 
   2   5   0   2   5   3 18 17 9 
   6   0   4   3   3   1 14 
   7   3   5   0   6   1 14 
   5   6   4   0   4   1 15 
   8   6   3   0   6   1 16 
   5   2   5  10   0   1 16 
   7   3   0   5   5   1 32
   1   6   5   0   5   1 32
   5   0   2   3   6   1 32
  10   0   6   2   3   1 32
   3   5   0   7   3   1 32
   1   5   0   7   3   1 32
   6   0   3   3   5   1 32
   7   3   4   0   3   1 32
   9   2   0   4   6   1 32
   2   4   0   4   2   1 32
   7   9   8   4   0   1 32
   9   2   4   4   0   1 32
   9   4   3   5   0   1 32
   6   2   0   4   4   1 32
  10   6   3   4   0   1 32
   6   6   4   7   0   1 32
   6   2   5   1   0   1 32
  10   4   2   0   3   1 32
   0   0   0   0   0   0 
